mixintcount/benchmarks/random_v2l/6_6_7943.smt2
(set-logic QF_LIA)
(set-info :ran/ran2.smt2)
(set-info :smt-lib-version 2.0)
(declare-fun x1 () Int)
(declare-fun x2 () Int)
(declare-fun x3 () Int)
(declare-fun x4 () Int)
(declare-fun x5 () Int)
(declare-fun x6 () Int)
(assert (<= (+ (* (- 4) x1) (* (- 9) x2) (* 9 x3) (* (- 3) x4) (* 6 x5) (* 2 x6) ) 1071))
(assert (<= (+ (* (- 4) x1) (* (- 7) x2) (* 6 x3) (* (- 7) x4) (* (- 2) x5) (* (- 7) x6) ) 6562))
(assert (<= (+ (* (- 2) x1) (* (- 5) x2) (* 10 x3) (* 1 x4) (* (- 5) x5) (* (- 3) x6) ) 4465))
(assert (<= (+ (* 8 x1) (* 8 x2) (* (- 4) x3) (* 0 x4) (* (- 6) x5) (* 0 x6) ) (- 3801)))
(assert (<= (+ (* 1 x1) (* 10 x2) (* 3 x3) (* 5 x4) (* (- 10) x5) (* (- 1) x6) ) 4793))
(assert (<= (+ (* 4 x1) (* (- 10) x2) (* (- 9) x3) (* 8 x4) (* (- 8) x5) (* 6 x6) ) (- 1783)))
(assert (<= (+ (* (- 2) x1) (* 9 x2) (* (- 6) x3) (* 6 x4) (* (- 7) x5) (* (- 9) x6) ) 4976))
(assert (<= (+ (* (- 4) x1) (* (- 4) x2) (* 0 x3) (* (- 7) x4) (* (- 6) x5) (* 4 x6) ) 5124))
(assert (<= (+ (* (- 4) x1) (* (- 9) x2) (* 0 x3) (* 5 x4) (* (- 10) x5) (* (- 10) x6) ) 6825))
(assert (<= (+ (* 9 x1) (* (- 1) x2) (* (- 3) x3) (* 0 x4) (* 0 x5) (* (- 1) x6) ) 4852))
(assert (<= (+ (* 0 x1) (* (- 6) x2) (* (- 2) x3) (* 8 x4) (* (- 10) x5) (* 0 x6) ) 7530))
(assert (<= (+ (* (- 9) x1) (* 0 x2) (* 8 x3) (* (- 2) x4) (* 6 x5) (* (- 4) x6) ) (- 3768)))
(assert (<= (+ (* 1 x1) (* 0 x2) (* 0 x3) (* 0 x4) (* 0 x5) (* 0 x6) ) 7943))
(assert (<= (+ (* (- 1) x1) (* 0 x2) (* 0 x3) (* 0 x4) (* 0 x5) (* 0 x6) ) 7943))
(assert (<= (+ (* 0 x1) (* 1 x2) (* 0 x3) (* 0 x4) (* 0 x5) (* 0 x6) ) 7943))
(assert (<= (+ (* 0 x1) (* (- 1) x2) (* 0 x3) (* 0 x4) (* 0 x5) (* 0 x6) ) 7943))
(assert (<= (+ (* 0 x1) (* 0 x2) (* 1 x3) (* 0 x4) (* 0 x5) (* 0 x6) ) 7943))
(assert (<= (+ (* 0 x1) (* 0 x2) (* (- 1) x3) (* 0 x4) (* 0 x5) (* 0 x6) ) 7943))
(assert (<= (+ (* 0 x1) (* 0 x2) (* 0 x3) (* 1 x4) (* 0 x5) (* 0 x6) ) 7943))
(assert (<= (+ (* 0 x1) (* 0 x2) (* 0 x3) (* (- 1) x4) (* 0 x5) (* 0 x6) ) 7943))
(assert (<= (+ (* 0 x1) (* 0 x2) (* 0 x3) (* 0 x4) (* 1 x5) (* 0 x6) ) 7943))
(assert (<= (+ (* 0 x1) (* 0 x2) (* 0 x3) (* 0 x4) (* (- 1) x5) (* 0 x6) ) 7943))
(assert (<= (+ (* 0 x1) (* 0 x2) (* 0 x3) (* 0 x4) (* 0 x5) (* 1 x6) ) 7943))
(assert (<= (+ (* 0 x1) (* 0 x2) (* 0 x3) (* 0 x4) (* 0 x5) (* (- 1) x6) ) 7943))
