mixintcount/benchmarks/random_v2l/6_6_7943.in
24 8
#	x1	x2	x3	x4	x5	x6;		0 = Real; 1 = Integer
	1	1	1	1	1	1
1	-4	-9	9	-3	6	2	1071
1	-4	-7	6	-7	-2	-7	6562
1	-2	-5	10	1	-5	-3	4465
1	8	8	-4	0	-6	0	-3801
1	1	10	3	5	-10	-1	4793
1	4	-10	-9	8	-8	6	-1783
1	-2	9	-6	6	-7	-9	4976
1	-4	-4	0	-7	-6	4	5124
1	-4	-9	0	5	-10	-10	6825
1	9	-1	-3	0	0	-1	4852
1	0	-6	-2	8	-10	0	7530
1	-9	0	8	-2	6	-4	-3768
1	1	0	0	0	0	0	7943
1	-1	0	0	0	0	0	7943
1	0	1	0	0	0	0	7943
1	0	-1	0	0	0	0	7943
1	0	0	1	0	0	0	7943
1	0	0	-1	0	0	0	7943
1	0	0	0	1	0	0	7943
1	0	0	0	-1	0	0	7943
1	0	0	0	0	1	0	7943
1	0	0	0	0	-1	0	7943
1	0	0	0	0	0	1	7943
1	0	0	0	0	0	-1	7943
